; sally-chc-benchmarks/./tta_startup/simple_startup2.2_000.smt2
(set-logic HORN)

(declare-fun |invariant| ( Real Real Bool Bool Real Real Real Real Real Real Real Real Real Real ) Bool)

(assert
  (forall ( (A Real) (B Real) (C Bool) (D Bool) (E Real) (F Real) (G Real) (H Real) (I Real) (J Real) (K Real) (L Real) (M Real) (N Real) ) 
    (=>
      (and
        (and (= H 0.0)
     (= G 0.0)
     (= F 0.0)
     (= E 1.0)
     (= B 0.0)
     (= A 1.0)
     (not (<= (/ 3.0 2.0) N))
     (not (<= 30.0 M))
     (not (<= 30.0 L))
     (not (<= N 0.0))
     (not (<= M K))
     (not (<= L K))
     (or (= H 0.0) (= H 1.0) (= H 2.0) (= H 3.0))
     (or (= G 0.0) (= G 1.0) (= G 2.0) (= G 3.0))
     (or (= J 1.0) (= J 2.0))
     (or (= I 1.0) (= I 2.0))
     (or (= E 1.0) (= E 2.0))
     (or (= A 0.0) (= A 1.0))
     (not D)
     (not C)
     (= K 0.0))
      )
      (invariant A B C D E F G H I J K L M N)
    )
  )
)
(assert
  (forall ( (A Real) (B Real) (C Real) (D Real) (E Bool) (F Bool) (G Bool) (H Bool) (I Real) (J Real) (K Real) (L Real) (M Real) (N Real) (O Real) (P Real) (Q Real) (R Real) (S Real) (T Real) (U Real) (V Real) (W Real) (X Real) (Y Real) (Z Real) (A1 Real) (B1 Real) ) 
    (=>
      (and
        (invariant A C E G I K M O Q S U W Y A1)
        (let ((a!1 (= B (ite (and (not E) (not G)) 0.0 A)))
      (a!2 (= D (ite (and (not E) (not G)) (+ U A1) C)))
      (a!3 (= J (ite (and (not E) (not G)) 1.0 I)))
      (a!4 (= L (ite (and (not E) (not G)) U K)))
      (a!5 (= H (or G (and (not E) (not G)))))
      (a!6 (= B (ite (and (not E) (not G)) 1.0 A)))
      (a!7 (= R (ite (= Q 2.0) 1.0 (+ 1.0 Q))))
      (a!8 (= (ite (= Q 2.0) 1.0 (+ 1.0 Q)) 1.0))
      (a!9 (and E
                (not F)
                (or (= M 1.0) (= M 2.0))
                (= U C)
                (= X (+ 3.0 U (* (- 1.0) A1)))
                (= A 1.0)
                (= B A)
                (= D C)
                (= J I)
                (= L K)
                (= N 3.0)
                (= R I)
                (= H G)))
      (a!10 (and E
                 (not F)
                 (= U C)
                 (= X (+ 3.0 U (* (- 1.0) A1)))
                 (= A 0.0)
                 (= B A)
                 (= D C)
                 (= J I)
                 (= L K)
                 (= M 2.0)
                 (= N 3.0)
                 (= R I)
                 (= H G)))
      (a!11 (and E
                 (not F)
                 (= U C)
                 (= X (+ 6.0 U (* (- 1.0) A1)))
                 (= A 0.0)
                 (= B A)
                 (= D C)
                 (= J I)
                 (= L K)
                 (= M 1.0)
                 (= N 2.0)
                 (= R Q)
                 (= H G)))
      (a!13 (= J (ite (and (not E) (not G)) 2.0 I)))
      (a!14 (= F (or E (and (not E) (not G)))))
      (a!15 (= T (ite (= S 2.0) 1.0 (+ 1.0 S))))
      (a!16 (= (ite (= S 2.0) 1.0 (+ 1.0 S)) 2.0))
      (a!17 (and G
                 (not H)
                 (or (= O 1.0) (= O 2.0))
                 (= P 3.0)
                 (= T I)
                 (= U C)
                 (= Z (+ 3.0 U (* (- 1.0) A1)))
                 (= A 1.0)
                 (= B A)
                 (= D C)
                 (= J I)
                 (= L K)
                 (= F E)))
      (a!18 (and G
                 (not H)
                 (= O 1.0)
                 (= P 2.0)
                 (= T S)
                 (= U C)
                 (= Z (+ 9.0 U (* (- 1.0) A1)))
                 (= A 0.0)
                 (= B A)
                 (= D C)
                 (= J I)
                 (= L K)
                 (= F E)))
      (a!19 (and G
                 (not H)
                 (= O 2.0)
                 (= P 3.0)
                 (= T I)
                 (= U C)
                 (= Z (+ 3.0 U (* (- 1.0) A1)))
                 (= A 0.0)
                 (= B A)
                 (= D C)
                 (= J I)
                 (= L K)
                 (= F E)))
      (a!22 (ite (and (not E) (not G))
                 (and (not (<= W U)) (not (<= Y U)))
                 (and (not (<= W U)) (not (<= Y U)) (not (<= C U)))))
      (a!23 (ite (and (not E) (not G))
                 (and (or (= V W) (= V Y)) (<= V W) (<= V Y))
                 (and (or (= V W) (= V Y) (= V C)) (<= V W) (<= V Y) (<= V C)))))
(let ((a!12 (or (and (not F)
                     (= U W)
                     (= X (+ 6.0 U))
                     a!1
                     a!2
                     a!3
                     a!4
                     (= M 1.0)
                     (= N 2.0)
                     (= R Q)
                     a!5)
                (and (not F)
                     (= U W)
                     (= X (+ 6.0 U))
                     a!1
                     a!2
                     a!3
                     a!4
                     (= M 2.0)
                     (= N M)
                     (= R Q)
                     a!5)
                (and (= U W)
                     (= X (+ 12.0 U))
                     (= B A)
                     (= D C)
                     (= J I)
                     (= L K)
                     (= M 0.0)
                     (= N 1.0)
                     (= R Q)
                     (= F E)
                     (= H G))
                (and E
                     (not F)
                     (= U C)
                     (= X W)
                     (= B A)
                     (= D C)
                     (= J I)
                     (= L K)
                     (= M 0.0)
                     (= N M)
                     (= R Q)
                     (= H G))
                (and (not F)
                     (= U W)
                     (= X (+ 3.0 U))
                     a!6
                     a!2
                     a!3
                     a!4
                     (= M 3.0)
                     (= N M)
                     a!7
                     a!8
                     a!5)
                (and (= U W)
                     (= X (+ 3.0 U))
                     (= B A)
                     (= D C)
                     (= J I)
                     (= L K)
                     (= M 3.0)
                     (= N M)
                     a!7
                     (not a!8)
                     (= F E)
                     (= H G))
                a!9
                (and E
                     (not F)
                     (= U C)
                     (= X W)
                     (= A 1.0)
                     (= B A)
                     (= D C)
                     (= J I)
                     (= L K)
                     (= M 3.0)
                     (= N M)
                     (= R Q)
                     (= H G))
                a!10
                a!11))
      (a!20 (or (and (not H)
                     (= O 1.0)
                     (= P 2.0)
                     (= T S)
                     (= U Y)
                     (= Z (+ 9.0 U))
                     a!1
                     a!2
                     a!13
                     a!4
                     a!14)
                (and (not H)
                     (= O 2.0)
                     (= P O)
                     (= T S)
                     (= U Y)
                     (= Z (+ 9.0 U))
                     a!1
                     a!2
                     a!13
                     a!4
                     a!14)
                (and (= O 0.0)
                     (= P 1.0)
                     (= T S)
                     (= U Y)
                     (= Z (+ 15.0 U))
                     (= B A)
                     (= D C)
                     (= J I)
                     (= L K)
                     (= F E)
                     (= H G))
                (and G
                     (not H)
                     (= O 0.0)
                     (= P O)
                     (= T S)
                     (= U C)
                     (= Z Y)
                     (= B A)
                     (= D C)
                     (= J I)
                     (= L K)
                     (= F E))
                (and (not H)
                     (= O 3.0)
                     (= P O)
                     a!15
                     (= U Y)
                     (= Z (+ 3.0 U))
                     a!6
                     a!2
                     a!13
                     a!4
                     a!16
                     a!14)
                (and (= O 3.0)
                     (= P O)
                     a!15
                     (= U Y)
                     (= Z (+ 3.0 U))
                     (= B A)
                     (= D C)
                     (= J I)
                     (= L K)
                     (not a!16)
                     (= F E)
                     (= H G))
                a!17
                a!18
                a!19
                (and G
                     (not H)
                     (= O 3.0)
                     (= P O)
                     (= T S)
                     (= U C)
                     (= Z Y)
                     (= A 1.0)
                     (= B A)
                     (= D C)
                     (= J I)
                     (= L K)
                     (= F E)))))
(let ((a!21 (and (or (and a!12 (= P O) (= T S) (= Z Y))
                     (and a!20 (= X W) (= N M) (= R Q)))
                 (= V U))))
  (and (or (= N 0.0) (= N 1.0) (= N 2.0) (= N 3.0))
       (or (= M 0.0) (= M 1.0) (= M 2.0) (= M 3.0))
       (or (= P 0.0) (= P 1.0) (= P 2.0) (= P 3.0))
       (or (= O 0.0) (= O 1.0) (= O 2.0) (= O 3.0))
       (or (= R 1.0) (= R 2.0))
       (or (= Q 1.0) (= Q 2.0))
       (or (= J 1.0) (= J 2.0))
       (or (= I 1.0) (= I 2.0))
       (or (= B 0.0) (= B 1.0))
       (or (= A 0.0) (= A 1.0))
       (or (= T 1.0) (= T 2.0))
       (or (= S 1.0) (= S 2.0))
       (or a!21
           (and (= P O)
                (= T S)
                (= X W)
                (= Z Y)
                (= B A)
                (= D C)
                (= J I)
                (= L K)
                (= N M)
                (= R Q)
                (= F E)
                (= H G)
                a!22
                a!23))
       (= B1 A1)))))
      )
      (invariant B D F H J L N P R T V X Z B1)
    )
  )
)
(assert
  (forall ( (A Real) (B Real) (C Bool) (D Bool) (E Real) (F Real) (G Real) (H Real) (I Real) (J Real) (K Real) (L Real) (M Real) (N Real) ) 
    (=>
      (and
        (invariant A B C D E F G H I J K L M N)
        (let ((a!1 (and (or (not (= I J)) (not (= L M)))
                (not (<= L K))
                (not (<= M K))
                (= G 3.0)
                (= H 3.0)))
      (a!2 (and (or (not (= J I)) (not (= M L)))
                (not (<= L K))
                (not (<= M K))
                (= G 3.0)
                (= H 3.0))))
  (or a!1 a!2))
      )
      false
    )
  )
)

(check-sat)
(exit)
